(set-info :smt-lib-version 2.6)
(set-logic QF_NRA)
(set-info :source |
Generated by: Anastasiia Izycheva, Eva Darulova
Generated on: 2020-09-11
Generator: Pine (using Z3 Python API)
Application: Check inductiveness of a loop invariant
Target solver: Z3

These benchmarks were generated while developing the tool Pine [1], which uses
CVC4/Z3 to check inductiveness of invariants. The work is described in [2].

[1] https://github.com/izycheva/pine
[2] A.Izycheva, E.Darulova, H.Seidl, SAS'20, "Counterexample- and Simulation-Guided Floating-Point Loop Invariant Synthesis"

 Loop:
   u' := u + 0.01 * v
   v' := v + 0.01 * (-0.5 * v - 9.81 * u)

 Input ranges:
   u in [0.0,0.0]
   v in [2.0,3.0]

 Invariant:
   -0.63*u + 0.01*v + 1.0*u^2 + -0.15*u*v + 0.06*v^2 <= 0.6
 and
   u in [-0.3,1.3]
   v in [-3.1,3.0]

 Query: Loop and Invariant and not Invariant'
|)
(set-info :license "https://creativecommons.org/licenses/by/4.0/")
(set-info :category "industrial")
(set-info :status unknown)
(declare-fun u! () Real)
(declare-fun v! () Real)
(declare-fun u () Real)
(declare-fun v () Real)
(assert
 (let ((?x73 (+ (* (* (- (/ 3.0 20.0)) u!) v!) (+ (* (* (/ 3.0 50.0) v!) v!) (* (- (/ 63.0 100.0)) u!)))))
 (let ((?x6 (* (/ 1.0 100.0) v!)))
 (let (($x47 (and (<= (- (/ 3.0 10.0)) u!) (>= (/ 13.0 10.0) u!) (<= (- (/ 31.0 10.0)) v!) (>= 3.0 v!))))
 (let (($x225 (and $x47 (>= (/ 3.0 5.0) (+ ?x6 (+ (* (* 1.0 u!) u!) ?x73))) )))
 (let (($x44 (and (= u! (+ u (* (/ 1.0 100.0) v))) (= v! (+ v (* (/ 1.0 100.0) (- (* (- (/ 1.0 2.0)) v) (* (/ 981.0 100.0) u))))))))
 (let ((?x11 (+ (* (* (- (/ 3.0 20.0)) u) v) (+ (* (* (/ 3.0 50.0) v) v) (* (- (/ 63.0 100.0)) u)))))
 (let ((?x43 (* (/ 1.0 100.0) v)))
 (let (($x272 (>= 3.0 v)))
 (let (($x34 (and (and (<= (- (/ 3.0 10.0)) u) (>= (/ 13.0 10.0) u) (<= (- (/ 31.0 10.0)) v) $x272) (>= (/ 3.0 5.0) (+ ?x43 (+ (* (* 1.0 u) u) ?x11))) )))
 (and $x34 $x44 (not $x225))))))))))))
(check-sat)
(exit)
